NAME bilinear_pre
ROWS
 N  OBJ
 E  ∑q=1  
 L  R1      
 L  R2      
 L  R3      
 L  R4      
 L  R5      
 L  R6      
 L  R7      
 L  R8      
 L  R9      
 L  R10     
 L  R11     
 L  R12     
 L  R13     
 L  R14     
 L  R15     
 L  R16     
 L  R17     
 L  R18     
 L  R19     
 L  R20     
 L  R21     
 L  R22     
 L  R23     
 L  R24     
 L  R25     
 L  R26     
 L  R27     
 L  R28     
 L  R29     
 L  R30     
 L  R31     
 L  R32     
 L  R33     
 L  R34     
 L  R35     
 L  R36     
 L  R37     
 L  R38     
 L  R39     
 L  R40     
 L  R41     
 L  R42     
 L  R43     
 L  R44     
 L  R45     
 L  R46     
 L  R47     
 L  R48     
 L  R49     
 L  R50     
 L  R51     
 L  R52     
 L  R53     
 L  R54     
 L  R55     
 L  R56     
 L  R57     
 L  R58     
 L  R59     
 L  R60     
 L  R61     
 L  R62     
 L  R63     
 L  R64     
 L  qc0     
 L  qc1     
 L  qc2     
 L  qc3     
 L  qc4     
 L  qc5     
 L  qc6     
 L  qc7     
 L  qc8     
 L  qc9     
 L  qc10    
 L  qc11    
 L  qc12    
 L  qc13    
 L  qc14    
 L  qc15    
 L  qc16    
 L  qc17    
 L  qc18    
 L  qc19    
 L  qc20    
 L  qc21    
 L  qc22    
 L  qc23    
 L  qc24    
 L  qc25    
 L  qc26    
 L  qc27    
 L  qc28    
 L  qc29    
COLUMNS
    a_({1},1)  OBJ       1
    a_({1},1)  R26       -2
    a_({1},1)  R28       -2
    a_({1},1)  R30       -1
    a_({1},1)  R42       -1
    a_({1,2},1)  OBJ       1
    a_({1,2},1)  R44       -2
    a_({1,2},1)  R46       -2
    a_({1,2},1)  R54       -2
    a_({1,2},2)  OBJ       1
    a_({1,2},2)  R48       -2
    a_({1,2},2)  R50       -2
    a_({1,2},2)  R56       -2
    a_({1,3},1)  OBJ       1
    a_({1,3},1)  R32       -2
    a_({1,3},1)  R34       -2
    a_({1,3},1)  R58       -2
    a_({1,3},3)  OBJ       1
    a_({1,3},3)  R36       -2
    a_({1,3},3)  R38       -2
    a_({1,3},3)  R60       -2
    a_({2},2)  OBJ       1
    a_({2},2)  R6        -2
    a_({2},2)  R8        -2
    a_({2},2)  R10       -1
    a_({2},2)  R52       -1
    a_({2,3},2)  OBJ       1
    a_({2,3},2)  R12       -2
    a_({2,3},2)  R14       -2
    a_({2,3},2)  R62       -2
    a_({2,3},3)  OBJ       1
    a_({2,3},3)  R16       -2
    a_({2,3},3)  R18       -2
    a_({2,3},3)  R64       -2
    a_({3},3)  OBJ       1
    a_({3},3)  R20       -1
    a_({3},3)  R22       -2
    a_({3},3)  R24       -2
    a_({3},3)  R40       -1
    q_{1,2,3}  ∑q=1    1
    q_{1,3,2}  ∑q=1    1
    q_{2,1,3}  ∑q=1    1
    q_{2,3,1}  ∑q=1    1
    q_{3,1,2}  ∑q=1    1
    q_{3,2,1}  ∑q=1    1
    C15       OBJ       0.5
    C15       R4        -1
    C16       R1        -0.5
    C16       R3        -0.5
    C16       R4        -1
    C16       R5        1
    C16       R6        1
    C16       qc0       1
    C17       R1        -0.5
    C17       R3        -0.5
    C17       R4        -1
    C17       R7        1
    C17       R8        1
    C17       qc1       1
    C18       R1        -1
    C18       R9        1
    C18       R10       1
    C18       qc2       1
    C19       R1        -0.5
    C19       R4        -1
    C19       R11       1
    C19       R12       1
    C19       qc3       1
    C20       R1        -0.5
    C20       R4        -1
    C20       R13       1
    C20       R14       1
    C20       qc4       1
    C21       R1        -0.5
    C21       R4        -1
    C21       R15       1
    C21       R16       1
    C21       qc5       1
    C22       R1        -0.5
    C22       R4        -1
    C22       R17       1
    C22       R18       1
    C22       qc6       1
    C23       R1        -1
    C23       R19       1
    C23       R20       1
    C23       qc7       1
    C24       R1        -0.5
    C24       R2        -0.5
    C24       R4        -1
    C24       R21       1
    C24       R22       1
    C24       qc8       1
    C25       R1        -0.5
    C25       R2        -0.5
    C25       R4        -1
    C25       R23       1
    C25       R24       1
    C25       qc9       1
    C26       R2        -0.5
    C26       R3        -0.5
    C26       R4        -1
    C26       R25       1
    C26       R26       1
    C26       qc10      1
    C27       R2        -0.5
    C27       R3        -0.5
    C27       R4        -1
    C27       R27       1
    C27       R28       1
    C27       qc11      1
    C28       R2        -1
    C28       R29       1
    C28       R30       1
    C28       qc12      1
    C29       R2        -0.5
    C29       R4        -1
    C29       R31       1
    C29       R32       1
    C29       qc13      1
    C30       R2        -0.5
    C30       R4        -1
    C30       R33       1
    C30       R34       1
    C30       qc14      1
    C31       R2        -0.5
    C31       R4        -1
    C31       R35       1
    C31       R36       1
    C31       qc15      1
    C32       R2        -0.5
    C32       R4        -1
    C32       R37       1
    C32       R38       1
    C32       qc16      1
    C33       R2        -1
    C33       R39       1
    C33       R40       1
    C33       qc17      1
    C34       R3        -1
    C34       R41       1
    C34       R42       1
    C34       qc18      1
    C35       R3        -0.5
    C35       R4        -1
    C35       R43       1
    C35       R44       1
    C35       qc19      1
    C36       R3        -0.5
    C36       R4        -1
    C36       R45       1
    C36       R46       1
    C36       qc20      1
    C37       R3        -0.5
    C37       R4        -1
    C37       R47       1
    C37       R48       1
    C37       qc21      1
    C38       R3        -0.5
    C38       R4        -1
    C38       R49       1
    C38       R50       1
    C38       qc22      1
    C39       R3        -1
    C39       R51       1
    C39       R52       1
    C39       qc23      1
    C40       R4        -1
    C40       R53       1
    C40       R54       1
    C40       qc24      1
    C41       R4        -1
    C41       R55       1
    C41       R56       1
    C41       qc25      1
    C42       R4        -1
    C42       R57       1
    C42       R58       1
    C42       qc26      1
    C43       R4        -1
    C43       R59       1
    C43       R60       1
    C43       qc27      1
    C44       R4        -1
    C44       R61       1
    C44       R62       1
    C44       qc28      1
    C45       R4        -1
    C45       R63       1
    C45       R64       1
    C45       qc29      1
    C46       R5        -1
    C46       R7        -1
    C46       R9        -1
    C46       R11       -1
    C46       R13       -1
    C46       R15       -1
    C46       R17       -1
    C46       R19       -1
    C46       R21       -1
    C46       R23       -1
    C46       R25       -1
    C46       R27       -1
    C46       R29       -1
    C46       R31       -1
    C46       R33       -1
    C46       R35       -1
    C46       R37       -1
    C46       R39       -1
    C46       R41       -1
    C46       R43       -1
    C46       R45       -1
    C46       R47       -1
    C46       R49       -1
    C46       R51       -1
    C46       R53       -1
    C46       R55       -1
    C46       R57       -1
    C46       R59       -1
    C46       R61       -1
    C46       R63       -1
RHS
    RHS1      ∑q=1    1
    RHS1      R1        -1
    RHS1      R2        -1
    RHS1      R3        -1
BOUNDS
 UP BND1      q_{1,2,3}  1
 UP BND1      q_{1,3,2}  1
 UP BND1      q_{2,1,3}  1
 UP BND1      q_{2,3,1}  1
 UP BND1      q_{3,1,2}  1
 UP BND1      q_{3,2,1}  1
 MI BND1      C15     
 UP BND1      C15       0
QCMATRIX   qc0     
    a_({2},2)  q_{2,1,3}  -1
    q_{2,1,3}  a_({2},2)  -1
QCMATRIX   qc1     
    a_({2},2)  q_{2,3,1}  -1
    q_{2,3,1}  a_({2},2)  -1
QCMATRIX   qc2     
    a_({2},2)  q_{3,2,1}  -0.5
    q_{3,2,1}  a_({2},2)  -0.5
QCMATRIX   qc3     
    a_({2,3},2)  q_{2,3,1}  -1
    q_{2,3,1}  a_({2,3},2)  -1
QCMATRIX   qc4     
    a_({2,3},2)  q_{3,2,1}  -1
    q_{3,2,1}  a_({2,3},2)  -1
QCMATRIX   qc5     
    a_({2,3},3)  q_{2,3,1}  -1
    q_{2,3,1}  a_({2,3},3)  -1
QCMATRIX   qc6     
    a_({2,3},3)  q_{3,2,1}  -1
    q_{3,2,1}  a_({2,3},3)  -1
QCMATRIX   qc7     
    a_({3},3)  q_{2,3,1}  -0.5
    q_{2,3,1}  a_({3},3)  -0.5
QCMATRIX   qc8     
    a_({3},3)  q_{3,1,2}  -1
    q_{3,1,2}  a_({3},3)  -1
QCMATRIX   qc9     
    a_({3},3)  q_{3,2,1}  -1
    q_{3,2,1}  a_({3},3)  -1
QCMATRIX   qc10    
    a_({1},1)  q_{1,2,3}  -1
    q_{1,2,3}  a_({1},1)  -1
QCMATRIX   qc11    
    a_({1},1)  q_{1,3,2}  -1
    q_{1,3,2}  a_({1},1)  -1
QCMATRIX   qc12    
    a_({1},1)  q_{3,1,2}  -0.5
    q_{3,1,2}  a_({1},1)  -0.5
QCMATRIX   qc13    
    a_({1,3},1)  q_{1,3,2}  -1
    q_{1,3,2}  a_({1,3},1)  -1
QCMATRIX   qc14    
    a_({1,3},1)  q_{3,1,2}  -1
    q_{3,1,2}  a_({1,3},1)  -1
QCMATRIX   qc15    
    a_({1,3},3)  q_{1,3,2}  -1
    q_{1,3,2}  a_({1,3},3)  -1
QCMATRIX   qc16    
    a_({1,3},3)  q_{3,1,2}  -1
    q_{3,1,2}  a_({1,3},3)  -1
QCMATRIX   qc17    
    a_({3},3)  q_{1,3,2}  -0.5
    q_{1,3,2}  a_({3},3)  -0.5
QCMATRIX   qc18    
    a_({1},1)  q_{2,1,3}  -0.5
    q_{2,1,3}  a_({1},1)  -0.5
QCMATRIX   qc19    
    a_({1,2},1)  q_{1,2,3}  -1
    q_{1,2,3}  a_({1,2},1)  -1
QCMATRIX   qc20    
    a_({1,2},1)  q_{2,1,3}  -1
    q_{2,1,3}  a_({1,2},1)  -1
QCMATRIX   qc21    
    a_({1,2},2)  q_{1,2,3}  -1
    q_{1,2,3}  a_({1,2},2)  -1
QCMATRIX   qc22    
    a_({1,2},2)  q_{2,1,3}  -1
    q_{2,1,3}  a_({1,2},2)  -1
QCMATRIX   qc23    
    a_({2},2)  q_{1,2,3}  -0.5
    q_{1,2,3}  a_({2},2)  -0.5
QCMATRIX   qc24    
    a_({1,2},1)  q_{1,3,2}  -1
    q_{1,3,2}  a_({1,2},1)  -1
QCMATRIX   qc25    
    a_({1,2},2)  q_{2,3,1}  -1
    q_{2,3,1}  a_({1,2},2)  -1
QCMATRIX   qc26    
    a_({1,3},1)  q_{1,2,3}  -1
    q_{1,2,3}  a_({1,3},1)  -1
QCMATRIX   qc27    
    a_({1,3},3)  q_{3,2,1}  -1
    q_{3,2,1}  a_({1,3},3)  -1
QCMATRIX   qc28    
    a_({2,3},2)  q_{2,1,3}  -1
    q_{2,1,3}  a_({2,3},2)  -1
QCMATRIX   qc29    
    a_({2,3},3)  q_{3,1,2}  -1
    q_{3,1,2}  a_({2,3},3)  -1
ENDATA
